%nprocshared=16
%chk=acetone.chk
# opt freq b3lyp/6-31+g(d) scrf empiricaldispersion=gd3bj

Title card required

0 1
 C                 -4.10156248    0.10937500    0.00000000
 H                 -3.33425264   -0.53263199   -0.37942407
 H                 -4.36448388    0.83028124   -0.74569869
 H                 -4.96262348   -0.47392274    0.25147110
 C                 -3.58822027    0.83533127    1.25740497
 C                 -2.35061765    0.10050331    1.80509799
 H                 -1.58276678    0.09087913    1.05997221
 H                 -1.99372206    0.60511636    2.67853442
 H                 -2.61547177   -0.90504766    2.05732713
 O                 -4.61459302    0.84775811    2.25304775

