%chk=C:\Users\Crema\Desktop\solv-media.chk
# hf/3-21g geom=connectivity

Title Card Required

0 2
 C                 -1.54130300   -1.29973600    0.00648300
 H                 -1.98796000   -1.42906000    1.00356000
 H                 -0.88141700   -2.14486700   -0.20593600
 H                 -2.37514900   -1.27557100   -0.70643900
 C                 -0.79642200    0.00220500   -0.01557100
 C                 -1.59443000    1.27163600    0.01487400
 H                 -2.10836100    1.38399300   -0.95140100
 H                 -2.37954300    1.21162300    0.77908500
 H                 -0.95733000    2.14230800    0.18808400
 O                  0.44349800    0.02705500   -0.05902100
 O                  2.85192300    0.00381300    0.11166100
 H                  2.21942400   -0.76577700    0.00728500
 H                  2.18717300    0.75195300    0.04551600
 H                  3.51272900    0.03383000   -0.61559300

 1 2 1.0 3 1.0 4 1.0 5 1.0
 2
 3
 4
 5 6 1.0 10 2.0
 6 7 1.0 8 1.0 9 1.0
 7
 8
 9
 10
 11 12 1.0 13 1.0 14 1.0
 12
 13
 14

