%nprocshared=32
%chk=IRCOH.chk
# irc=(calcfc,maxpoints=20) b3lyp/6-31+g(d) scrf empiricaldispersion=gd3bj

GFHDGHDHD

-1 1
 C                 -1.38958600    1.15892700   -0.16597300
 H                 -0.73989900    1.98180700    0.14786600
 H                 -2.33241700    1.23946900    0.39173200
 H                 -1.62559100    1.26358100   -1.23042700
 C                 -0.77087900   -0.20923900    0.10467800
 C                  0.35433300   -0.26928300    1.00451600
 H                  0.37658700    0.52054000    1.76209700
 H                  0.53650800   -1.26374400    1.42381700
 H                  1.43514700   -0.00049500    0.25823700
 O                 -1.22329500   -1.19840600   -0.52045600
 O                  2.54092900    0.27792500   -0.40266900
 H                  2.64538400   -0.45974400   -1.02765700

